%%% static parameters %%%
timespan = 1;
Fact = [2];
Distr1 = [5];
Distr2 = [10];
Clients_N = [100];
Demand_W = [15];
Lt0 = [4];
Lt1 = [4];
SS_ = [0.85];
DS_D = [8];
K = [200];
MA = [500];
%%% dynamic parameters %%%
lost_ratio_sales_ret_th = 0.9344520213396479;
lost_ratio_sales_ret_w = 64;
lost_ratio_sales_dis_th = 0.36794493873252276;
lost_ratio_sales_dis_w = 15;
lost_ratio_sales_fac_th = 0.33793210677493823;
lost_ratio_sales_fac_w = 10;
stock_customer_MA_mean_relative_th = 0.011142242490969512;
stock_customer_MA_mean_relative_w = 1;
stock_distributor_MA_mean_relative_th = 0.4410156165421456;
stock_distributor_MA_mean_relative_w = 35;
stock_retailer_MA_mean_relative_th = 0.9419485475018017;
stock_retailer_MA_mean_relative_w = 69;
stock_factory_MA_mean_relative_th = 0.09748312412918281;
stock_factory_MA_mean_relative_w = 2;
